32	0

0	1	2
5	1	3
9	1	4
5	1	5
4	1	6
4	1	7
10	1	8
6	1	9
5	1	10
4	1	11
9	1	12
4	1	13
5	1	14
3	1	15
6	1	16
6	1	17
8	1	18
7	1	19
4	1	20
7	1	21
3	1	22
7	1	23
10	1	24
4	1	25
1	1	26
4	1	27
7	1	28
5	1	29
3	1	30
2	1	31
1	1	32
0	0
